;symbolic execution tree
(push)
(assert (le x0 java.lang.String))
(check-sat)
(push)
(assert (le x0 java.lang.String))
(check-sat)
(pop)
(push)
(assert (not (le x0 java.lang.String)))
(check-sat)
(pop)
(push)
(assert (le x0 java.lang.String))
(check-sat)
(pop)
(push)
(assert (not (le x0 java.lang.String)))
(check-sat)
(pop)
(push)
(assert (le x0 java.lang.String))
(check-sat)
(pop)
(push)
(assert (not (le x0 java.lang.String)))
(check-sat)
(pop)
(pop)
(push)
(assert (not (le x0 java.lang.String)))
(check-sat)
(push)
(assert (le x0 java.lang.String))
(check-sat)
(pop)
(push)
(assert (not (le x0 java.lang.String)))
(check-sat)
(pop)
(push)
(assert (le x1 java.lang.String))
(check-sat)
(pop)
(push)
(assert (not (le x1 java.lang.String)))
(check-sat)
(push)
(assert (le x0 java.lang.String))
(check-sat)
(pop)
(push)
(assert (not (le x0 java.lang.String)))
(check-sat)
(push)
(assert (le x0 java.lang.String))
(check-sat)
(pop)
(push)
(assert (not (le x0 java.lang.String)))
(check-sat)
(pop)
(pop)
(pop)
(push)
(assert (le x0 java.lang.String))
(check-sat)
(pop)
(push)
(assert (not (le x0 java.lang.String)))
(check-sat)
(push)
(assert (le x0 java.lang.String))
(check-sat)
(pop)
(push)
(assert (not (le x0 java.lang.String)))
(check-sat)
(pop)
(push)
(assert (le x1 java.util.zip.ZipEntry))
(check-sat)
(push)
(assert (le x1 java.util.zip.ZipEntry))
(check-sat)
(pop)
(push)
(assert (not (le x1 java.util.zip.ZipEntry)))
(check-sat)
(pop)
(push)
(assert (le x1 java.util.zip.ZipEntry))
(check-sat)
(pop)
(push)
(assert (not (le x1 java.util.zip.ZipEntry)))
(check-sat)
(pop)
(push)
(assert (le x0 java.lang.String))
(check-sat)
(pop)
(push)
(assert (not (le x0 java.lang.String)))
(check-sat)
(pop)
(pop)
(push)
(assert (not (le x1 java.util.zip.ZipEntry)))
(check-sat)
(push)
(assert (le x1 java.util.zip.ZipEntry))
(check-sat)
(pop)
(push)
(assert (not (le x1 java.util.zip.ZipEntry)))
(check-sat)
(pop)
(push)
(assert (le x1 java.util.zip.ZipEntry))
(check-sat)
(pop)
(push)
(assert (not (le x1 java.util.zip.ZipEntry)))
(check-sat)
(pop)
(pop)
(push)
(assert (le x1 java.lang.String))
(check-sat)
(push)
(assert (le x1 java.lang.String))
(check-sat)
(push)
(assert (le x0 java.lang.String))
(check-sat)
(pop)
(push)
(assert (not (le x0 java.lang.String)))
(check-sat)
(pop)
(pop)
(push)
(assert (not (le x1 java.lang.String)))
(check-sat)
(pop)
(pop)
(push)
(assert (not (le x1 java.lang.String)))
(check-sat)
(push)
(assert (le x1 java.lang.String))
(check-sat)
(pop)
(push)
(assert (not (le x1 java.lang.String)))
(check-sat)
(pop)
(pop)
(push)
(assert (le x1 java.lang.String))
(check-sat)
(push)
(assert (le x1 java.lang.String))
(check-sat)
(pop)
(push)
(assert (not (le x1 java.lang.String)))
(check-sat)
(pop)
(push)
(assert (le x1 java.lang.String))
(check-sat)
(pop)
(push)
(assert (not (le x1 java.lang.String)))
(check-sat)
(pop)
(push)
(assert (le x0 java.lang.String))
(check-sat)
(pop)
(push)
(assert (not (le x0 java.lang.String)))
(check-sat)
(push)
(assert (le x1 java.lang.String))
(check-sat)
(pop)
(push)
(assert (not (le x1 java.lang.String)))
(check-sat)
(pop)
(pop)
(push)
(assert (le x0 java.lang.String))
(check-sat)
(pop)
(push)
(assert (not (le x0 java.lang.String)))
(check-sat)
(push)
(assert (le x1 java.lang.String))
(check-sat)
(pop)
(push)
(assert (not (le x1 java.lang.String)))
(check-sat)
(pop)
(pop)
(pop)
(push)
(assert (not (le x1 java.lang.String)))
(check-sat)
(push)
(assert (le x1 java.lang.String))
(check-sat)
(pop)
(push)
(assert (not (le x1 java.lang.String)))
(check-sat)
(pop)
(push)
(assert (le x0 java.lang.String))
(check-sat)
(pop)
(push)
(assert (not (le x0 java.lang.String)))
(check-sat)
(pop)
(pop)
(push)
(assert (le x0 java.lang.String))
(check-sat)
(pop)
(push)
(assert (not (le x0 java.lang.String)))
(check-sat)
(pop)
(push)
(assert (le x0 java.lang.String))
(check-sat)
(pop)
(push)
(assert (not (le x0 java.lang.String)))
(check-sat)
(push)
(assert (le x0 java.lang.String))
(check-sat)
(pop)
(push)
(assert (not (le x0 java.lang.String)))
(check-sat)
(push)
(assert (le x0 java.lang.String))
(check-sat)
(pop)
(push)
(assert (not (le x0 java.lang.String)))
(check-sat)
(pop)
(pop)
(pop)
(pop)
(push)
(assert (le x1 soot.coffi.CONSTANT_Methodref_info))
(check-sat)
(pop)
(push)
(assert (not (le x1 soot.coffi.CONSTANT_Methodref_info)))
(check-sat)
(push)
(assert (le x0 java.lang.String))
(check-sat)
(pop)
(push)
(assert (not (le x0 java.lang.String)))
(check-sat)
(push)
(assert (not (le x1 soot.coffi.CONSTANT_Class_info)))
(check-sat)
(pop)
(push)
(assert (le x1 soot.coffi.CONSTANT_Class_info))
(check-sat)
(pop)
(push)
(assert (not (le x1 soot.coffi.CONSTANT_Utf8_info)))
(check-sat)
(pop)
(push)
(assert (le x1 soot.coffi.CONSTANT_Utf8_info))
(check-sat)
(pop)
(pop)
(push)
(assert (le x1 soot.coffi.CONSTANT_Methodref_info))
(check-sat)
(pop)
(push)
(assert (not (le x1 soot.coffi.CONSTANT_Methodref_info)))
(check-sat)
(push)
(assert (not (le x1 soot.coffi.CONSTANT_Class_info)))
(check-sat)
(pop)
(push)
(assert (le x1 soot.coffi.CONSTANT_Class_info))
(check-sat)
(pop)
(pop)
(push)
(assert (le x0 java.lang.String))
(check-sat)
(pop)
(push)
(assert (not (le x0 java.lang.String)))
(check-sat)
(push)
(assert (not (le x1 soot.coffi.CONSTANT_Utf8_info)))
(check-sat)
(pop)
(push)
(assert (le x1 soot.coffi.CONSTANT_Utf8_info))
(check-sat)
(pop)
(pop)
(push)
(assert (not (le x1 soot.coffi.CONSTANT_Class_info)))
(check-sat)
(push)
(assert (not (le x1 soot.coffi.CONSTANT_Fieldref_info)))
(check-sat)
(push)
(assert (not (le x1 soot.coffi.CONSTANT_Methodref_info)))
(check-sat)
(pop)
(push)
(assert (le x1 soot.coffi.CONSTANT_Methodref_info))
(check-sat)
(pop)
(pop)
(push)
(assert (le x1 soot.coffi.CONSTANT_Fieldref_info))
(check-sat)
(pop)
(pop)
(push)
(assert (le x1 soot.coffi.CONSTANT_Class_info))
(check-sat)
(push)
(assert (le x0 java.lang.String))
(check-sat)
(pop)
(push)
(assert (not (le x0 java.lang.String)))
(check-sat)
(pop)
(push)
(assert (le x0 java.lang.String))
(check-sat)
(pop)
(push)
(assert (not (le x0 java.lang.String)))
(check-sat)
(push)
(assert (le x0 java.lang.String))
(check-sat)
(pop)
(push)
(assert (not (le x0 java.lang.String)))
(check-sat)
(pop)
(push)
(assert (le x0 java.lang.String))
(check-sat)
(pop)
(push)
(assert (not (le x0 java.lang.String)))
(check-sat)
(pop)
(pop)
(push)
(assert (le x0 java.lang.String))
(check-sat)
(pop)
(push)
(assert (not (le x0 java.lang.String)))
(check-sat)
(pop)
(pop)
(pop)
(push)
(assert (le x0 java.lang.String))
(check-sat)
(pop)
(push)
(assert (not (le x0 java.lang.String)))
(check-sat)
(push)
(assert (le x0 java.lang.String))
(check-sat)
(pop)
(push)
(assert (not (le x0 java.lang.String)))
(check-sat)
(pop)
(push)
(assert (le x1 java.util.zip.ZipEntry))
(check-sat)
(push)
(assert (le x1 java.util.zip.ZipEntry))
(check-sat)
(pop)
(push)
(assert (not (le x1 java.util.zip.ZipEntry)))
(check-sat)
(pop)
(push)
(assert (le x1 java.util.zip.ZipEntry))
(check-sat)
(pop)
(push)
(assert (not (le x1 java.util.zip.ZipEntry)))
(check-sat)
(pop)
(push)
(assert (le x0 java.lang.String))
(check-sat)
(pop)
(push)
(assert (not (le x0 java.lang.String)))
(check-sat)
(pop)
(push)
(assert (le x0 java.lang.String))
(check-sat)
(pop)
(push)
(assert (not (le x0 java.lang.String)))
(check-sat)
(pop)
(pop)
(push)
(assert (not (le x1 java.util.zip.ZipEntry)))
(check-sat)
(pop)
(push)
(assert (le x1 java.lang.String))
(check-sat)
(pop)
(push)
(assert (not (le x1 java.lang.String)))
(check-sat)
(pop)
(push)
(assert (le x1 java.io.File))
(check-sat)
(pop)
(push)
(assert (not (le x1 java.io.File)))
(check-sat)
(push)
(assert (le x1 java.io.File))
(check-sat)
(pop)
(push)
(assert (not (le x1 java.io.File)))
(check-sat)
(push)
(assert (le x0 java.lang.String))
(check-sat)
(pop)
(push)
(assert (not (le x0 java.lang.String)))
(check-sat)
(pop)
(pop)
(pop)
(pop)
(push)
(assert (le x0 java.lang.String))
(check-sat)
(pop)
(push)
(assert (not (le x0 java.lang.String)))
(check-sat)
(pop)
(push)
(assert (le x0 java.lang.String))
(check-sat)
(pop)
(push)
(assert (not (le x0 java.lang.String)))
(check-sat)
(pop)
(push)
(assert (le x1 java.util.ArrayList))
(check-sat)
(push)
(assert (le x0 java.lang.String))
(check-sat)
(pop)
(push)
(assert (not (le x0 java.lang.String)))
(check-sat)
(pop)
(push)
(assert (le x1 java.util.ArrayList))
(check-sat)
(push)
(assert (le x0 java.lang.String))
(check-sat)
(pop)
(push)
(assert (not (le x0 java.lang.String)))
(check-sat)
(pop)
(pop)
(push)
(assert (not (le x1 java.util.ArrayList)))
(check-sat)
(pop)
(push)
(assert (le x1 java.util.ArrayList))
(check-sat)
(push)
(assert (le x0 java.lang.String))
(check-sat)
(pop)
(push)
(assert (not (le x0 java.lang.String)))
(check-sat)
(pop)
(pop)
(push)
(assert (not (le x1 java.util.ArrayList)))
(check-sat)
(pop)
(push)
(assert (le x1 java.util.ArrayList))
(check-sat)
(pop)
(push)
(assert (not (le x1 java.util.ArrayList)))
(check-sat)
(pop)
(push)
(assert (le x1 java.util.ArrayList))
(check-sat)
(push)
(assert (le x1 java.util.ArrayList))
(check-sat)
(pop)
(push)
(assert (not (le x1 java.util.ArrayList)))
(check-sat)
(pop)
(pop)
(push)
(assert (not (le x1 java.util.ArrayList)))
(check-sat)
(pop)
(push)
(assert (le x1 soot.util.PhaseDumper_currencysign_PhaseStack))
(check-sat)
(push)
(assert (le x0 java.lang.String))
(check-sat)
(pop)
(push)
(assert (not (le x0 java.lang.String)))
(check-sat)
(pop)
(pop)
(push)
(assert (not (le x1 soot.util.PhaseDumper_currencysign_PhaseStack)))
(check-sat)
(push)
(assert (le x0 java.lang.String))
(check-sat)
(pop)
(push)
(assert (not (le x0 java.lang.String)))
(check-sat)
(pop)
(pop)
(pop)
(push)
(assert (not (le x1 java.util.ArrayList)))
(check-sat)
(push)
(assert (le x1 java.util.ArrayList))
(check-sat)
(pop)
(push)
(assert (not (le x1 java.util.ArrayList)))
(check-sat)
(pop)
(pop)
(push)
(assert (le x1 java.io.File))
(check-sat)
(pop)
(push)
(assert (not (le x1 java.io.File)))
(check-sat)
(push)
(assert (le x0 java.lang.String))
(check-sat)
(pop)
(push)
(assert (not (le x0 java.lang.String)))
(check-sat)
(pop)
(pop)
(push)
(assert (le x1 java.lang.String))
(check-sat)
(pop)
(push)
(assert (not (le x1 java.lang.String)))
(check-sat)
(pop)
(push)
(assert (le x1 java.lang.Object))
(check-sat)
(push)
(assert (not (le x1 soot.RefType)))
(check-sat)
(pop)
(push)
(assert (le x1 soot.RefType))
(check-sat)
(push)
(assert (le x1 java.lang.Object))
(check-sat)
(pop)
(push)
(assert (not (le x1 java.lang.Object)))
(check-sat)
(pop)
(push)
(assert (le x0 java.lang.String))
(check-sat)
(pop)
(push)
(assert (not (le x0 java.lang.String)))
(check-sat)
(pop)
(pop)
(pop)
(push)
(assert (not (le x1 java.lang.Object)))
(check-sat)
(pop)
(push)
(assert (le x1 soot.coffi.CONSTANT_Class_info))
(check-sat)
(push)
(assert (le x0 java.lang.String))
(check-sat)
(pop)
(push)
(assert (not (le x0 java.lang.String)))
(check-sat)
(pop)
(push)
(assert (le x0 java.lang.String))
(check-sat)
(pop)
(push)
(assert (not (le x0 java.lang.String)))
(check-sat)
(push)
(assert (le x1 soot.coffi.CONSTANT_Class_info))
(check-sat)
(push)
(assert (le x1 soot.coffi.CONSTANT_Class_info))
(check-sat)
(pop)
(push)
(assert (not (le x1 soot.coffi.CONSTANT_Class_info)))
(check-sat)
(pop)
(push)
(assert (le x0 java.lang.String))
(check-sat)
(pop)
(push)
(assert (not (le x0 java.lang.String)))
(check-sat)
(pop)
(pop)
(push)
(assert (not (le x1 soot.coffi.CONSTANT_Class_info)))
(check-sat)
(pop)
(pop)
(push)
(assert (le x1 soot.coffi.CONSTANT_Class_info))
(check-sat)
(pop)
(push)
(assert (not (le x1 soot.coffi.CONSTANT_Class_info)))
(check-sat)
(pop)
(pop)
(push)
(assert (not (le x1 soot.coffi.CONSTANT_Class_info)))
(check-sat)
(pop)
(push)
(assert (le x1 java.io.DataInputStream))
(check-sat)
(push)
(assert (le x1 java.io.DataInputStream))
(check-sat)
(pop)
(push)
(assert (not (le x1 java.io.DataInputStream)))
(check-sat)
(pop)
(push)
(assert (le x1 java.io.DataInputStream))
(check-sat)
(pop)
(push)
(assert (not (le x1 java.io.DataInputStream)))
(check-sat)
(pop)
(push)
(assert (le x1 java.io.DataInputStream))
(check-sat)
(pop)
(push)
(assert (not (le x1 java.io.DataInputStream)))
(check-sat)
(pop)
(push)
(assert (le x1 java.io.DataInputStream))
(check-sat)
(pop)
(push)
(assert (not (le x1 java.io.DataInputStream)))
(check-sat)
(pop)
(pop)
(push)
(assert (not (le x1 java.io.DataInputStream)))
(check-sat)
(push)
(assert (le x0 java.lang.String))
(check-sat)
(pop)
(push)
(assert (not (le x0 java.lang.String)))
(check-sat)
(pop)
(push)
(assert (le x0 java.lang.String))
(check-sat)
(pop)
(push)
(assert (not (le x0 java.lang.String)))
(check-sat)
(pop)
(push)
(assert (le x1 java.io.DataInputStream))
(check-sat)
(pop)
(push)
(assert (not (le x1 java.io.DataInputStream)))
(check-sat)
(pop)
(push)
(assert (le x1 java.io.DataInputStream))
(check-sat)
(pop)
(push)
(assert (not (le x1 java.io.DataInputStream)))
(check-sat)
(pop)
(pop)
(push)
(assert (le x1 java.lang.String))
(check-sat)
(pop)
(push)
(assert (not (le x1 java.lang.String)))
(check-sat)
(push)
(assert (le x1 java.lang.String))
(check-sat)
(pop)
(push)
(assert (not (le x1 java.lang.String)))
(check-sat)
(pop)
(pop)
(pop)
